Total weight: 1486.8608006373927
Route 1: 0 59 92 95 94 96 97 13 0 
Route 2: 0 28 76 81 34 24 68 80 0 
Route 3: 0 2 73 21 40 54 55 25 0 
Route 4: 0 27 52 31 30 20 66 32 70 0 
Route 5: 0 14 38 44 98 99 6 0 
Route 6: 0 69 33 51 1 0 
Route 7: 0 47 36 8 18 0 
Route 8: 0 72 75 23 41 57 74 0 
Route 9: 0 82 7 88 0 
Route 10: 0 83 45 17 85 37 100 91 93 0 
Route 11: 0 12 29 78 79 3 77 0 
Route 12: 0 5 61 16 86 84 60 89 0 
Route 13: 0 62 19 63 90 10 0 
Route 14: 0 65 71 35 9 50 0 
Route 15: 0 42 15 43 87 58 0 
Route 16: 0 11 64 49 46 48 0 
Route 17: 0 39 67 22 56 4 26 0 
Route 18: 0 53 0 
